54
Energy =
C     0.1593256   -1.7858852    1.6829720 
C    -0.0423811    0.4715358    2.4258643 
C    -0.0097544    0.1086788    3.7381816 
C     0.1987278   -2.2295207    3.0423980 
C     0.1117477   -1.2612091    4.1487969 
C     0.1452948   -1.6461657    5.4897445 
C     0.0717836   -0.7920958    6.6125555 
C    -0.1326694    1.5229849   11.6205052 
C     0.0016080    0.0063996   11.5284031 
C     0.0440387   -0.4859375   12.8311404 
C    -0.0550199    0.6250017   13.7503834 
C    -0.0620515    0.6727637   15.1348746 
C    -0.0020290    0.0113379   -0.0083967 
N     0.0367453   -0.4213319    1.3915600 
C     1.0812867    2.2825090   11.0734711 
C    -1.4618319    2.0564552   11.0734978 
O    -0.1542266    1.7664273   13.0575626 
C     0.1658656   -1.8655943   13.1508475 
C     0.0377936   -0.4948402   15.9502037 
C    -0.1758839    1.9370448   15.7930211 
N     0.2674054   -3.0119061   13.3165960 
N     0.1157596   -1.4175079   16.6537753 
N    -0.2685837    2.9596996   16.3388503 
C     0.1089294   -1.2256162    7.9254286 
C     0.0348199   -0.3607190    9.0435065 
C     0.0713491   -0.7885956   10.3569938 
C    -0.1368567    1.5122536   -0.2469283 
C     0.2447931   -2.7309460    0.6361349 
C     0.3669344   -4.0872020    0.9090932 
C     0.4071765   -4.5377092    2.2351614 
C     0.3240456   -3.6182908    3.2708149 
H    -0.1356915    1.5205293    2.1539886 
H    -0.0803893    0.9042902    4.4785628 
H     0.2374695   -2.7089919    5.7202420 
H    -0.0206920    0.2884836    6.4520450 
H     0.9164182   -0.3212807   -0.5201449 
H    -0.8465338   -0.4794819   -0.5199081 
H     1.1480823    2.1918531    9.9800116 
H     0.9920913    3.3475876   11.3350384 
H     2.0110752    1.8917811   11.5124373 
H    -1.5117172    1.9553280    9.9799686 
H    -2.3082475    1.5082586   11.5129954 
H    -1.5618917    3.1206750   11.3346838 
H     0.2008099   -2.3006586    8.1201386 
H    -0.0567735    0.7088990    8.8252369 
H     0.1644916   -1.8660716   10.5311843 
H    -1.0688015    1.8951676    0.2158435 
H     0.7133154    2.0548116    0.2138853 
H     0.2161287   -2.4081496   -0.4024167 
H     0.4312775   -4.7975787    0.0810801 
H     0.5032876   -5.6032468    2.4557738 
H     0.3573028   -3.9858016    4.2961265 
O    -0.1511231    1.6529338   -1.6474142 
H    -0.2320751    2.5888287   -1.8683263 
